NAME : portgen-32-34
COMMENT : portgen N=32, seed=34
TYPE : TSP
DIMENSION : 32
EDGE_WEIGHT_TYPE : EUC_2D
NODE_COORD_SECTION
1 133098 970971
2 220496 446501
3 646269 187216
4 183042 358062
5 215406 621235
6 265590 110235
7 795373 696680
8 158486 499298
9 403004 962072
10 302779 878435
11 276762 586866
12 954650 420805
13 634006 56263
14 461692 152404
15 210649 898967
16 546705 26095
17 862431 185050
18 65465 862629
19 120735 366835
20 506450 82959
21 679385 100130
22 950799 613434
23 736194 24867
24 365949 880177
25 105771 731057
26 891187 59358
27 386313 328929
28 751224 107003
29 108540 35445
30 381035 783640
31 66481 816206
32 851611 132446
